c Generated map
c Size: 8 * 8, weights in range: 1 to 10, walls: False, with ratio 0.0
c dim 9 of 10
c
p sp 64 112
c graph contains 64 nodes and 112 arcs
c
a 1 9 5
a 9 1 5
a 1 2 3
a 2 1 3
a 2 10 9
a 10 2 9
a 2 3 7
a 3 2 7
a 3 11 6
a 11 3 6
a 3 4 4
a 4 3 4
a 4 12 4
a 12 4 4
a 4 5 4
a 5 4 4
a 5 13 10
a 13 5 10
a 5 6 4
a 6 5 4
a 6 14 1
a 14 6 1
a 6 7 5
a 7 6 5
a 7 15 4
a 15 7 4
a 7 8 7
a 8 7 7
a 8 16 9
a 16 8 9
a 9 17 3
a 17 9 3
a 9 10 5
a 10 9 5
a 10 18 4
a 18 10 4
a 10 11 6
a 11 10 6
a 11 19 8
a 19 11 8
a 11 12 4
a 12 11 4
a 12 20 10
a 20 12 10
a 12 13 1
a 13 12 1
a 13 21 4
a 21 13 4
a 13 14 8
a 14 13 8
a 14 22 4
a 22 14 4
a 14 15 6
a 15 14 6
a 15 23 1
a 23 15 1
a 15 16 2
a 16 15 2
a 16 24 4
a 24 16 4
a 17 25 6
a 25 17 6
a 17 18 4
a 18 17 4
a 18 26 9
a 26 18 9
a 18 19 1
a 19 18 1
a 19 27 9
a 27 19 9
a 19 20 3
a 20 19 3
a 20 28 10
a 28 20 10
a 20 21 8
a 21 20 8
a 21 29 7
a 29 21 7
a 21 22 5
a 22 21 5
a 22 30 1
a 30 22 1
a 22 23 10
a 23 22 10
a 23 31 10
a 31 23 10
a 23 24 6
a 24 23 6
a 24 32 6
a 32 24 6
a 25 33 1
a 33 25 1
a 25 26 6
a 26 25 6
a 26 34 4
a 34 26 4
a 26 27 7
a 27 26 7
a 27 35 1
a 35 27 1
a 27 28 9
a 28 27 9
a 28 36 6
a 36 28 6
a 28 29 3
a 29 28 3
a 29 37 4
a 37 29 4
a 29 30 7
a 30 29 7
a 30 38 1
a 38 30 1
a 30 31 6
a 31 30 6
a 31 39 4
a 39 31 4
a 31 32 10
a 32 31 10
a 32 40 7
a 40 32 7
a 33 41 2
a 41 33 2
a 33 34 3
a 34 33 3
a 34 42 1
a 42 34 1
a 34 35 9
a 35 34 9
a 35 43 7
a 43 35 7
a 35 36 9
a 36 35 9
a 36 44 5
a 44 36 5
a 36 37 9
a 37 36 9
a 37 45 7
a 45 37 7
a 37 38 10
a 38 37 10
a 38 46 2
a 46 38 2
a 38 39 5
a 39 38 5
a 39 47 2
a 47 39 2
a 39 40 5
a 40 39 5
a 40 48 10
a 48 40 10
a 41 49 3
a 49 41 3
a 41 42 7
a 42 41 7
a 42 50 6
a 50 42 6
a 42 43 5
a 43 42 5
a 43 51 10
a 51 43 10
a 43 44 5
a 44 43 5
a 44 52 1
a 52 44 1
a 44 45 2
a 45 44 2
a 45 53 1
a 53 45 1
a 45 46 7
a 46 45 7
a 46 54 7
a 54 46 7
a 46 47 10
a 47 46 10
a 47 55 7
a 55 47 7
a 47 48 6
a 48 47 6
a 48 56 4
a 56 48 4
a 49 57 5
a 57 49 5
a 49 50 10
a 50 49 10
a 50 58 3
a 58 50 3
a 50 51 3
a 51 50 3
a 51 59 6
a 59 51 6
a 51 52 1
a 52 51 1
a 52 60 3
a 60 52 3
a 52 53 10
a 53 52 10
a 53 61 10
a 61 53 10
a 53 54 9
a 54 53 9
a 54 62 1
a 62 54 1
a 54 55 9
a 55 54 9
a 55 63 8
a 63 55 8
a 55 56 7
a 56 55 7
a 56 64 8
a 64 56 8
a 57 58 8
a 58 57 8
a 58 59 8
a 59 58 8
a 59 60 7
a 60 59 7
a 60 61 9
a 61 60 9
a 61 62 8
a 62 61 8
a 62 63 6
a 63 62 6
a 63 64 7
a 64 63 7
